Academic license - for non-commercial use only - expires 2022-11-10
Using license file /home/benedond/Apps/gurobi/gurobi950/gurobi.lic
Using gurobi.env file
Set parameter Threads to value 1
Changed value of parameter TimeLimit to 300.0
   Prev: inf  Min: 0.0  Max: inf  Default: inf
Gurobi Optimizer version 9.1.2 build v9.1.2rc0 (linux64)
Thread count: 2 physical cores, 4 logical processors, using up to 1 threads
Optimize a model with 880 rows, 820 columns and 3258 nonzeros
Model fingerprint: 0xb070f801
Variable types: 20 continuous, 800 integer (800 binary)
Coefficient statistics:
  Matrix range     [1e+00, 2e+02]
  Objective range  [4e+01, 2e+02]
  Bounds range     [1e+00, 1e+00]
  RHS range        [1e+00, 6e+02]
Presolve removed 614 rows and 577 columns
Presolve time: 0.13s
Presolved: 266 rows, 243 columns, 929 nonzeros
Variable types: 12 continuous, 231 integer (231 binary)
Found heuristic solution: objective 1783.0000000

Root relaxation: objective 1.939250e+03, 146 iterations, 0.00 seconds

    Nodes    |    Current Node    |     Objective Bounds      |     Work
 Expl Unexpl |  Obj  Depth IntInf | Incumbent    BestBd   Gap | It/Node Time

     0     0 1939.24985    0   42 1783.00000 1939.24985  8.76%     -    0s
H    0     0                    1831.0000000 1939.24985  5.91%     -    0s
     0     0 1937.70523    0   43 1831.00000 1937.70523  5.83%     -    0s
     0     0 1937.11109    0   45 1831.00000 1937.11109  5.80%     -    0s
     0     0 1937.10745    0   47 1831.00000 1937.10745  5.80%     -    0s
     0     0 1937.10745    0   48 1831.00000 1937.10745  5.80%     -    0s
     0     0 1935.24522    0   46 1831.00000 1935.24522  5.69%     -    0s
     0     0 1934.26627    0   52 1831.00000 1934.26627  5.64%     -    0s
     0     0 1933.46291    0   49 1831.00000 1933.46291  5.60%     -    0s
     0     0 1932.06373    0   55 1831.00000 1932.06373  5.52%     -    0s
     0     0 1929.02268    0   43 1831.00000 1929.02268  5.35%     -    0s
     0     0 1928.95238    0   42 1831.00000 1928.95238  5.35%     -    0s
     0     0 1928.95171    0   42 1831.00000 1928.95171  5.35%     -    0s
     0     0 1928.76478    0   54 1831.00000 1928.76478  5.34%     -    0s
     0     0 1928.75448    0   52 1831.00000 1928.75448  5.34%     -    0s
     0     0 1928.75007    0   51 1831.00000 1928.75007  5.34%     -    0s
     0     0 1928.55916    0   49 1831.00000 1928.55916  5.33%     -    0s
H    0     0                    1837.0000000 1928.55916  4.98%     -    0s
     0     0 1928.52015    0   52 1837.00000 1928.52015  4.98%     -    0s
     0     0 1928.50608    0   54 1837.00000 1928.50608  4.98%     -    0s
     0     0 1928.49145    0   57 1837.00000 1928.49145  4.98%     -    0s
     0     0 1928.46270    0   56 1837.00000 1928.46270  4.98%     -    0s
     0     0 1928.46270    0   56 1837.00000 1928.46270  4.98%     -    0s
     0     0 1928.14446    0   57 1837.00000 1928.14446  4.96%     -    0s
H    0     0                    1841.0000000 1928.14446  4.73%     -    0s
     0     0 1928.11422    0   59 1841.00000 1928.11422  4.73%     -    0s
     0     0 1928.11094    0   60 1841.00000 1928.11094  4.73%     -    0s
     0     0 1927.89342    0   60 1841.00000 1927.89342  4.72%     -    0s
     0     0 1927.88869    0   60 1841.00000 1927.88869  4.72%     -    0s
     0     0 1927.79446    0   58 1841.00000 1927.79446  4.71%     -    0s
     0     0 1927.78319    0   59 1841.00000 1927.78319  4.71%     -    0s
     0     0 1927.77679    0   60 1841.00000 1927.77679  4.71%     -    0s
     0     0 1927.63418    0   63 1841.00000 1927.63418  4.71%     -    0s
H    0     0                    1846.0000000 1927.63418  4.42%     -    0s
     0     0 1927.60643    0   61 1846.00000 1927.60643  4.42%     -    0s
     0     0 1927.60558    0   62 1846.00000 1927.60558  4.42%     -    0s
     0     0 1927.33462    0   62 1846.00000 1927.33462  4.41%     -    0s
     0     0 1927.27608    0   58 1846.00000 1927.27608  4.40%     -    0s
     0     0 1927.26775    0   58 1846.00000 1927.26775  4.40%     -    0s
     0     0 1927.26653    0   60 1846.00000 1927.26653  4.40%     -    0s
     0     0 1927.22159    0   61 1846.00000 1927.22159  4.40%     -    0s
     0     0 1927.20351    0   62 1846.00000 1927.20351  4.40%     -    0s
     0     0 1927.20011    0   62 1846.00000 1927.20011  4.40%     -    0s
     0     0 1927.19952    0   64 1846.00000 1927.19952  4.40%     -    0s
     0     0 1927.19952    0   57 1846.00000 1927.19952  4.40%     -    0s
     0     2 1926.18826    0   55 1846.00000 1926.18826  4.34%     -    0s
H   28    17                    1850.0000000 1923.13417  3.95%  11.9    0s
H  163    73                    1866.0000000 1912.53950  2.49%  10.5    0s
*  174    72              26    1869.0000000 1912.53950  2.33%  10.4    0s

Cutting planes:
  Gomory: 7
  Cover: 78
  Implied bound: 30
  MIR: 82
  GUB cover: 1
  Inf proof: 1
  RLT: 3
  Relax-and-lift: 44

Explored 1205 nodes (12582 simplex iterations) in 0.78 seconds
Thread count was 1 (of 4 available processors)

Solution count 8: 1869 1866 1850 ... 1783

Optimal solution found (tolerance 1.00e-04)
Best objective 1.869000000000e+03, best bound 1.869000000000e+03, gap 0.0000%
